problem_generation/data/GISP/train/er_n=65_m=1202_p=0.60_SET2_setparam=100.00_alpha=0.50_758.lp
maximize
OBJ:100x0 + 100x1 + 100x2 + 100x3 + 100x4 + 100x5 + 100x6 + 100x7 + 100x8 + 100x9 + 100x10 + 100x11 + 100x12 + 100x13 + 100x14 + 100x15 + 100x16 + 100x17 + 100x18 + 100x19 + 100x20 + 100x21 + 100x22 + 100x23 + 100x24 + 100x25 + 100x26 + 100x27 + 100x28 + 100x29 + 100x30 + 100x31 + 100x32 + 100x33 + 100x34 + 100x35 + 100x36 + 100x37 + 100x38 + 100x39 + 100x40 + 100x41 + 100x42 + 100x43 + 100x44 + 100x45 + 100x46 + 100x47 + 100x48 + 100x49 + 100x50 + 100x51 + 100x52 + 100x53 + 100x54 + 100x55 + 100x56 + 100x57 + 100x58 + 100x59 + 100x60 + 100x61 + 100x62 + 100x63 + 100x64 - y15_21 - y7_17 - y47_53 - y26_30 - y7_26 - y47_62 - y7_35 - y40_41 - y29_50 - y40_50 - y10_27 - y2_32 - y3_6 - y33_56 - y2_59 - y32_60 - y3_42 - y14_42 - y7_12 - y36_48 - y36_57 - y17_53 - y28_53 - y9_58 - y6_43 - y29_45 - y40_45 - y21_41 - y6_52 - y29_54 - y40_63 - y10_31 - y2_27 - y25_29 - y10_40 - y10_49 - y51_59 - y2_54 - y14_19 - y43_55 - y22_32 - y32_64 - y24_60 - y5_46 - y36_61 - y47_61 - y59_63 - y17_57 - y5_64 - y21_27 - y10_26 - y39_62 - y10_35 - y10_44 - y12_63 - y2_40 - y25_42 - y32_41 - y3_14 - y22_27 - y35_46 - y16_51 - y28_34 - y7_11 - y55_60 - y36_56 - y5_50 - y6_15 - y28_61 - y9_57 - y21_22 - y6_33 - y29_35 - y29_44 - y21_40 - y10_12 - y39_48 - y39_57 - y2_17 - y20_53 - y10_30 - y54_55 - y54_64 - y23_58 - y32_36 - y3_9 - y24_50 - y35_50 - y32_63 - y17_20 - y17_29 - y9_25 - y28_38 - y47_51 - y9_34 - y21_26 - y50_62 - y6_37 - y61_62 - y2_12 - y20_48 - y31_48 - y2_21 - y24_27 - y13_36 - y35_36 - y32_49 - y13_45 - y24_45 - y35_54 - y17_24 - y36_37 - y9_20 - y5_31 - y5_49 - y6_14 - y58_61 - y30_60 - y0_56 - y31_34 - y2_16 - y31_52 - y4_44 - y4_53 - y16_18 - y43_44 - y24_40 - y35_40 - y35_49 - y1_56 - y35_58 - y5_17 - y9_15 - y49_51 - y17_37 - y9_33 - y6_9 - y42_48 - y8_55 - y19_55 - y0_60 - y12_25 - y31_38 - y20_47 - y39_60 - y12_43 - y23_43 - y1_15 - y53_62 - y34_58 - y24_35 - y46_50 - y9_19 - y26_53 - y5_30 - y49_55 - y49_64 - y5_39 - y50_56 - y11_37 - y8_50 - y30_50 - y42_52 - y8_59 - y11_64 - y12_29 - y23_29 - y23_38 - y34_53 - y45_53 - y1_28 - y24_30 - y15_48 - y26_48 - y38_50 - y46_63 - y49_50 - y15_57 - y27_31 - y8_27 - y27_40 - y19_36 - y0_32 - y8_45 - y19_45 - y42_47 - y0_41 - y39_41 - y23_24 - y41_60 - y20_37 - y31_37 - y4_29 - y1_14 - y34_48 - y1_23 - y16_21 - y56_57 - y16_30 - y15_43 - y46_58 - y49_54 - y7_48 - y18_48 - y49_63 - y18_57 - y8_22 - y11_18 - y19_31 - y11_27 - y8_40 - y19_40 - y27_53 - y30_40 - y19_49 - y0_45 - y41_46 - y30_58 - y12_19 - y41_55 - y52_55 - y4_15 - y23_37 - y34_43 - y45_52 - y37_48 - y22_59 - y14_64 - y15_29 - y18_25 - y15_38 - y26_38 - y15_47 - y8_26 - y48_62 - y27_39 - y8_35 - y19_44 - y30_44 - y0_40 - y11_49 - y52_59 - y4_19 - y22_36 - y22_45 - y22_54 - y18_20 - y26_33 - y15_42 - y0_8 - y18_56 - y8_21 - y0_17 - y11_17 - y29_62 - y40_62 - y63_64 - y0_35 - y41_45 - y2_53 - y25_55 - y25_64 - y3_27 - y22_40 - y34_42 - y3_36 - y22_49 - y34_51 - y45_51 - y3_63 - y18_24 - y26_46 - y18_42 - y29_39 - y0_12 - y11_12 - y29_48 - y48_61 - y40_57 - y21_62 - y41_58 - y52_58 - y33_54 - y33_63 - y44_63 - y2_57 - y25_59 - y7_10 - y7_19 - y26_32 - y28_60 - y7_37 - y18_37 - y8_11 - y40_43 - y11_16 - y21_48 - y29_61 - y25_27 - y33_49 - y51_57 - y32_62 - y22_39 - y3_35 - y36_41 - y55_63 - y17_46 - y47_59 - y9_42 - y5_53 - y9_51 - y17_64 - y28_64 - y21_34 - y29_47 - y6_54 - y6_63 - y2_20 - y54_58 - y2_29 - y10_42 - y2_38 - y3_12 - y32_48 - y2_56 - y14_21 - y24_53 - y3_30 - y16_58 - y28_32 - y28_50 - y36_63 - y21_29 - y6_49 - y29_51 - y21_47 - y54_62 - y10_37 - y24_39 - y32_52 - y13_48 - y16_44 - y17_18 - y17_27 - y5_34 - y17_36 - y17_54 - y6_17 - y9_50 - y6_26 - y9_59 - y29_37 - y21_42 - y20_46 - y54_57 - y10_32 - y12_51 - y4_56 - y32_47 - y43_47 - y13_43 - y32_56 - y1_50 - y13_52 - y1_59 - y16_57 - y5_20 - y17_22 - y5_29 - y17_31 - y9_27 - y5_38 - y17_49 - y9_45 - y42_51 - y21_28 - y61_64 - y6_39 - y19_58 - y0_63 - y2_5 - y31_41 - y10_18 - y39_54 - y2_14 - y12_46 - y20_59 - y31_59 - y23_55 - y23_64 - y13_29 - y32_42 - y51_55 - y13_38 - y43_51 - y13_47 - y16_43 - y24_56 - y46_53 - y9_13 - y5_24 - y9_22 - y38_58 - y5_33 - y49_58 - y5_42 - y6_7 - y5_51 - y42_46 - y30_53 - y0_49 - y19_62 - y39_40 - y10_13 - y39_49 - y2_9 - y39_58 - y23_59 - y53_60 - y16_29 - y16_38 - y1_49 - y5_10 - y9_17 - y28_30 - y49_62 - y27_34 - y27_43 - y6_20 - y8_39 - y30_39 - y27_52 - y42_50 - y27_61 - y50_63 - y8_57 - y20_22 - y42_59 - y12_18 - y12_27 - y23_27 - y12_45 - y1_8 - y1_17 - y4_50 - y24_28 - y34_60 - y35_37 - y1_44 - y9_12 - y15_46 - y38_48 - y46_61 - y38_57 - y49_57 - y15_64 - y7_60 - y8_43 - y30_43 - y8_52 - y30_52 - y0_57 - y23_40 - y23_49 - y34_46 - y1_21 - y16_19 - y34_64 - y56_64 - y15_41 - y46_56 - y26_59 - y19_20 - y18_64 - y19_29 - y19_38 - y30_38 - y27_51 - y11_34 - y19_47 - y20_30 - y0_61 - y12_26 - y4_22 - y4_31 - y1_7 - y4_40 - y34_41 - y1_16 - y22_48 - y34_50 - y1_25 - y37_46 - y16_23 - y37_55 - y14_62 - y26_36 - y38_47 - y7_41 - y15_54 - y8_15 - y15_63 - y27_28 - y7_59 - y18_59 - y8_33 - y30_33 - y27_46 - y8_42 - y11_38 - y0_47 - y60_61 - y12_21 - y41_57 - y1_2 - y34_36 - y34_45 - y37_41 - y37_50 - y45_63 - y56_63 - y7_18 - y26_40 - y18_45 - y8_19 - y11_15 - y48_64 - y21_56 - y4_12 - y10_46 - y41_61 - y10_55 - y2_51 - y25_53 - y25_62 - y14_34 - y22_47 - y45_49 - y22_56 - y3_61 - y15_26 - y15_44 - y26_44 - y7_40 - y0_1 - y29_46 - y6_53 - y11_28 - y21_60 - y44_61 - y22_42 - y3_38 - y37_40 - y3_47 - y7_8
 Subject to
C1: x0+x1-y0_1 <=1 
C2: x0+x3 <=1 
C3: x0+x5 <=1 
C4: x0+x8-y0_8 <=1 
C5: x0+x11 <=1 
C6: x0+x12-y0_12 <=1 
C7: x0+x13 <=1 
C8: x0+x14 <=1 
C9: x0+x16 <=1 
C10: x0+x17-y0_17 <=1 
C11: x0+x22 <=1 
C12: x0+x25 <=1 
C13: x0+x26 <=1 
C14: x0+x28 <=1 
C15: x0+x31 <=1 
C16: x0+x32-y0_32 <=1 
C17: x0+x33 <=1 
C18: x0+x34 <=1 
C19: x0+x35-y0_35 <=1 
C20: x0+x38 <=1 
C21: x0+x39 <=1 
C22: x0+x40-y0_40 <=1 
C23: x0+x41-y0_41 <=1 
C24: x0+x43 <=1 
C25: x0+x45-y0_45 <=1 
C26: x0+x46 <=1 
C27: x0+x47-y0_47 <=1 
C28: x0+x49-y0_49 <=1 
C29: x0+x50 <=1 
C30: x0+x51 <=1 
C31: x0+x52 <=1 
C32: x0+x54 <=1 
C33: x0+x56-y0_56 <=1 
C34: x0+x57-y0_57 <=1 
C35: x0+x59 <=1 
C36: x0+x60-y0_60 <=1 
C37: x0+x61-y0_61 <=1 
C38: x0+x63-y0_63 <=1 
C39: x1+x2-y1_2 <=1 
C40: x1+x3 <=1 
C41: x1+x6 <=1 
C42: x1+x7-y1_7 <=1 
C43: x1+x8-y1_8 <=1 
C44: x1+x9 <=1 
C45: x1+x13 <=1 
C46: x1+x14-y1_14 <=1 
C47: x1+x15-y1_15 <=1 
C48: x1+x16-y1_16 <=1 
C49: x1+x17-y1_17 <=1 
C50: x1+x18 <=1 
C51: x1+x19 <=1 
C52: x1+x21-y1_21 <=1 
C53: x1+x23-y1_23 <=1 
C54: x1+x25-y1_25 <=1 
C55: x1+x26 <=1 
C56: x1+x27 <=1 
C57: x1+x28-y1_28 <=1 
C58: x1+x37 <=1 
C59: x1+x44-y1_44 <=1 
C60: x1+x45 <=1 
C61: x1+x46 <=1 
C62: x1+x49-y1_49 <=1 
C63: x1+x50-y1_50 <=1 
C64: x1+x51 <=1 
C65: x1+x52 <=1 
C66: x1+x53 <=1 
C67: x1+x54 <=1 
C68: x1+x55 <=1 
C69: x1+x56-y1_56 <=1 
C70: x1+x59-y1_59 <=1 
C71: x1+x62 <=1 
C72: x1+x64 <=1 
C73: x2+x5-y2_5 <=1 
C74: x2+x7 <=1 
C75: x2+x9-y2_9 <=1 
C76: x2+x12-y2_12 <=1 
C77: x2+x13 <=1 
C78: x2+x14-y2_14 <=1 
C79: x2+x16-y2_16 <=1 
C80: x2+x17-y2_17 <=1 
C81: x2+x20-y2_20 <=1 
C82: x2+x21-y2_21 <=1 
C83: x2+x22 <=1 
C84: x2+x23 <=1 
C85: x2+x24 <=1 
C86: x2+x25 <=1 
C87: x2+x27-y2_27 <=1 
C88: x2+x29-y2_29 <=1 
C89: x2+x31 <=1 
C90: x2+x32-y2_32 <=1 
C91: x2+x38-y2_38 <=1 
C92: x2+x39 <=1 
C93: x2+x40-y2_40 <=1 
C94: x2+x44 <=1 
C95: x2+x45 <=1 
C96: x2+x46 <=1 
C97: x2+x47 <=1 
C98: x2+x49 <=1 
C99: x2+x51-y2_51 <=1 
C100: x2+x53-y2_53 <=1 
C101: x2+x54-y2_54 <=1 
C102: x2+x55 <=1 
C103: x2+x56-y2_56 <=1 
C104: x2+x57-y2_57 <=1 
C105: x2+x59-y2_59 <=1 
C106: x2+x60 <=1 
C107: x2+x61 <=1 
C108: x2+x62 <=1 
C109: x3+x6-y3_6 <=1 
C110: x3+x8 <=1 
C111: x3+x9-y3_9 <=1 
C112: x3+x12-y3_12 <=1 
C113: x3+x14-y3_14 <=1 
C114: x3+x15 <=1 
C115: x3+x20 <=1 
C116: x3+x27-y3_27 <=1 
C117: x3+x28 <=1 
C118: x3+x30-y3_30 <=1 
C119: x3+x34 <=1 
C120: x3+x35-y3_35 <=1 
C121: x3+x36-y3_36 <=1 
C122: x3+x38-y3_38 <=1 
C123: x3+x39 <=1 
C124: x3+x42-y3_42 <=1 
C125: x3+x45 <=1 
C126: x3+x46 <=1 
C127: x3+x47-y3_47 <=1 
C128: x3+x50 <=1 
C129: x3+x52 <=1 
C130: x3+x53 <=1 
C131: x3+x55 <=1 
C132: x3+x56 <=1 
C133: x3+x57 <=1 
C134: x3+x58 <=1 
C135: x3+x61-y3_61 <=1 
C136: x3+x62 <=1 
C137: x3+x63-y3_63 <=1 
C138: x3+x64 <=1 
C139: x4+x5 <=1 
C140: x4+x6 <=1 
C141: x4+x9 <=1 
C142: x4+x12-y4_12 <=1 
C143: x4+x14 <=1 
C144: x4+x15-y4_15 <=1 
C145: x4+x16 <=1 
C146: x4+x17 <=1 
C147: x4+x19-y4_19 <=1 
C148: x4+x21 <=1 
C149: x4+x22-y4_22 <=1 
C150: x4+x23 <=1 
C151: x4+x24 <=1 
C152: x4+x25 <=1 
C153: x4+x26 <=1 
C154: x4+x27 <=1 
C155: x4+x29-y4_29 <=1 
C156: x4+x31-y4_31 <=1 
C157: x4+x33 <=1 
C158: x4+x34 <=1 
C159: x4+x36 <=1 
C160: x4+x37 <=1 
C161: x4+x40-y4_40 <=1 
C162: x4+x43 <=1 
C163: x4+x44-y4_44 <=1 
C164: x4+x49 <=1 
C165: x4+x50-y4_50 <=1 
C166: x4+x53-y4_53 <=1 
C167: x4+x54 <=1 
C168: x4+x56-y4_56 <=1 
C169: x4+x61 <=1 
C170: x4+x62 <=1 
C171: x4+x64 <=1 
C172: x5+x6 <=1 
C173: x5+x7 <=1 
C174: x5+x8 <=1 
C175: x5+x9 <=1 
C176: x5+x10-y5_10 <=1 
C177: x5+x12 <=1 
C178: x5+x14 <=1 
C179: x5+x17-y5_17 <=1 
C180: x5+x18 <=1 
C181: x5+x19 <=1 
C182: x5+x20-y5_20 <=1 
C183: x5+x21 <=1 
C184: x5+x24-y5_24 <=1 
C185: x5+x25 <=1 
C186: x5+x26 <=1 
C187: x5+x29-y5_29 <=1 
C188: x5+x30-y5_30 <=1 
C189: x5+x31-y5_31 <=1 
C190: x5+x32 <=1 
C191: x5+x33-y5_33 <=1 
C192: x5+x34-y5_34 <=1 
C193: x5+x36 <=1 
C194: x5+x37 <=1 
C195: x5+x38-y5_38 <=1 
C196: x5+x39-y5_39 <=1 
C197: x5+x40 <=1 
C198: x5+x42-y5_42 <=1 
C199: x5+x43 <=1 
C200: x5+x44 <=1 
C201: x5+x46-y5_46 <=1 
C202: x5+x47 <=1 
C203: x5+x48 <=1 
C204: x5+x49-y5_49 <=1 
C205: x5+x50-y5_50 <=1 
C206: x5+x51-y5_51 <=1 
C207: x5+x53-y5_53 <=1 
C208: x5+x54 <=1 
C209: x5+x55 <=1 
C210: x5+x57 <=1 
C211: x5+x59 <=1 
C212: x5+x61 <=1 
C213: x5+x63 <=1 
C214: x5+x64-y5_64 <=1 
C215: x6+x7-y6_7 <=1 
C216: x6+x8 <=1 
C217: x6+x9-y6_9 <=1 
C218: x6+x11 <=1 
C219: x6+x12 <=1 
C220: x6+x14-y6_14 <=1 
C221: x6+x15-y6_15 <=1 
C222: x6+x17-y6_17 <=1 
C223: x6+x19 <=1 
C224: x6+x20-y6_20 <=1 
C225: x6+x23 <=1 
C226: x6+x24 <=1 
C227: x6+x25 <=1 
C228: x6+x26-y6_26 <=1 
C229: x6+x27 <=1 
C230: x6+x28 <=1 
C231: x6+x32 <=1 
C232: x6+x33-y6_33 <=1 
C233: x6+x37-y6_37 <=1 
C234: x6+x39-y6_39 <=1 
C235: x6+x41 <=1 
C236: x6+x43-y6_43 <=1 
C237: x6+x44 <=1 
C238: x6+x45 <=1 
C239: x6+x47 <=1 
C240: x6+x48 <=1 
C241: x6+x49-y6_49 <=1 
C242: x6+x50 <=1 
C243: x6+x52-y6_52 <=1 
C244: x6+x53-y6_53 <=1 
C245: x6+x54-y6_54 <=1 
C246: x6+x55 <=1 
C247: x6+x62 <=1 
C248: x6+x63-y6_63 <=1 
C249: x7+x8-y7_8 <=1 
C250: x7+x10-y7_10 <=1 
C251: x7+x11-y7_11 <=1 
C252: x7+x12-y7_12 <=1 
C253: x7+x13 <=1 
C254: x7+x17-y7_17 <=1 
C255: x7+x18-y7_18 <=1 
C256: x7+x19-y7_19 <=1 
C257: x7+x25 <=1 
C258: x7+x26-y7_26 <=1 
C259: x7+x28 <=1 
C260: x7+x33 <=1 
C261: x7+x35-y7_35 <=1 
C262: x7+x37-y7_37 <=1 
C263: x7+x40-y7_40 <=1 
C264: x7+x41-y7_41 <=1 
C265: x7+x42 <=1 
C266: x7+x43 <=1 
C267: x7+x44 <=1 
C268: x7+x46 <=1 
C269: x7+x48-y7_48 <=1 
C270: x7+x49 <=1 
C271: x7+x52 <=1 
C272: x7+x53 <=1 
C273: x7+x58 <=1 
C274: x7+x59-y7_59 <=1 
C275: x7+x60-y7_60 <=1 
C276: x7+x61 <=1 
C277: x7+x62 <=1 
C278: x7+x63 <=1 
C279: x7+x64 <=1 
C280: x8+x9 <=1 
C281: x8+x10 <=1 
C282: x8+x11-y8_11 <=1 
C283: x8+x13 <=1 
C284: x8+x15-y8_15 <=1 
C285: x8+x16 <=1 
C286: x8+x18 <=1 
C287: x8+x19-y8_19 <=1 
C288: x8+x21-y8_21 <=1 
C289: x8+x22-y8_22 <=1 
C290: x8+x24 <=1 
C291: x8+x25 <=1 
C292: x8+x26-y8_26 <=1 
C293: x8+x27-y8_27 <=1 
C294: x8+x32 <=1 
C295: x8+x33-y8_33 <=1 
C296: x8+x34 <=1 
C297: x8+x35-y8_35 <=1 
C298: x8+x36 <=1 
C299: x8+x37 <=1 
C300: x8+x38 <=1 
C301: x8+x39-y8_39 <=1 
C302: x8+x40-y8_40 <=1 
C303: x8+x42-y8_42 <=1 
C304: x8+x43-y8_43 <=1 
C305: x8+x44 <=1 
C306: x8+x45-y8_45 <=1 
C307: x8+x46 <=1 
C308: x8+x47 <=1 
C309: x8+x49 <=1 
C310: x8+x50-y8_50 <=1 
C311: x8+x52-y8_52 <=1 
C312: x8+x53 <=1 
C313: x8+x54 <=1 
C314: x8+x55-y8_55 <=1 
C315: x8+x56 <=1 
C316: x8+x57-y8_57 <=1 
C317: x8+x58 <=1 
C318: x8+x59-y8_59 <=1 
C319: x8+x61 <=1 
C320: x8+x64 <=1 
C321: x9+x12-y9_12 <=1 
C322: x9+x13-y9_13 <=1 
C323: x9+x15-y9_15 <=1 
C324: x9+x17-y9_17 <=1 
C325: x9+x18 <=1 
C326: x9+x19-y9_19 <=1 
C327: x9+x20-y9_20 <=1 
C328: x9+x22-y9_22 <=1 
C329: x9+x25-y9_25 <=1 
C330: x9+x27-y9_27 <=1 
C331: x9+x33-y9_33 <=1 
C332: x9+x34-y9_34 <=1 
C333: x9+x36 <=1 
C334: x9+x37 <=1 
C335: x9+x42-y9_42 <=1 
C336: x9+x44 <=1 
C337: x9+x45-y9_45 <=1 
C338: x9+x48 <=1 
C339: x9+x50-y9_50 <=1 
C340: x9+x51-y9_51 <=1 
C341: x9+x55 <=1 
C342: x9+x57-y9_57 <=1 
C343: x9+x58-y9_58 <=1 
C344: x9+x59-y9_59 <=1 
C345: x9+x60 <=1 
C346: x9+x61 <=1 
C347: x9+x62 <=1 
C348: x9+x63 <=1 
C349: x9+x64 <=1 
C350: x10+x12-y10_12 <=1 
C351: x10+x13-y10_13 <=1 
C352: x10+x16 <=1 
C353: x10+x17 <=1 
C354: x10+x18-y10_18 <=1 
C355: x10+x20 <=1 
C356: x10+x21 <=1 
C357: x10+x25 <=1 
C358: x10+x26-y10_26 <=1 
C359: x10+x27-y10_27 <=1 
C360: x10+x28 <=1 
C361: x10+x29 <=1 
C362: x10+x30-y10_30 <=1 
C363: x10+x31-y10_31 <=1 
C364: x10+x32-y10_32 <=1 
C365: x10+x34 <=1 
C366: x10+x35-y10_35 <=1 
C367: x10+x37-y10_37 <=1 
C368: x10+x40-y10_40 <=1 
C369: x10+x41 <=1 
C370: x10+x42-y10_42 <=1 
C371: x10+x44-y10_44 <=1 
C372: x10+x46-y10_46 <=1 
C373: x10+x47 <=1 
C374: x10+x49-y10_49 <=1 
C375: x10+x52 <=1 
C376: x10+x55-y10_55 <=1 
C377: x10+x58 <=1 
C378: x10+x62 <=1 
C379: x10+x63 <=1 
C380: x11+x12-y11_12 <=1 
C381: x11+x15-y11_15 <=1 
C382: x11+x16-y11_16 <=1 
C383: x11+x17-y11_17 <=1 
C384: x11+x18-y11_18 <=1 
C385: x11+x22 <=1 
C386: x11+x24 <=1 
C387: x11+x26 <=1 
C388: x11+x27-y11_27 <=1 
C389: x11+x28-y11_28 <=1 
C390: x11+x32 <=1 
C391: x11+x34-y11_34 <=1 
C392: x11+x37-y11_37 <=1 
C393: x11+x38-y11_38 <=1 
C394: x11+x42 <=1 
C395: x11+x45 <=1 
C396: x11+x46 <=1 
C397: x11+x49-y11_49 <=1 
C398: x11+x50 <=1 
C399: x11+x51 <=1 
C400: x11+x52 <=1 
C401: x11+x55 <=1 
C402: x11+x56 <=1 
C403: x11+x57 <=1 
C404: x11+x63 <=1 
C405: x11+x64-y11_64 <=1 
C406: x12+x13 <=1 
C407: x12+x15 <=1 
C408: x12+x17 <=1 
C409: x12+x18-y12_18 <=1 
C410: x12+x19-y12_19 <=1 
C411: x12+x20 <=1 
C412: x12+x21-y12_21 <=1 
C413: x12+x23 <=1 
C414: x12+x25-y12_25 <=1 
C415: x12+x26-y12_26 <=1 
C416: x12+x27-y12_27 <=1 
C417: x12+x29-y12_29 <=1 
C418: x12+x30 <=1 
C419: x12+x31 <=1 
C420: x12+x35 <=1 
C421: x12+x43-y12_43 <=1 
C422: x12+x44 <=1 
C423: x12+x45-y12_45 <=1 
C424: x12+x46-y12_46 <=1 
C425: x12+x48 <=1 
C426: x12+x49 <=1 
C427: x12+x51-y12_51 <=1 
C428: x12+x53 <=1 
C429: x12+x57 <=1 
C430: x12+x58 <=1 
C431: x12+x60 <=1 
C432: x12+x63-y12_63 <=1 
C433: x12+x64 <=1 
C434: x13+x17 <=1 
C435: x13+x18 <=1 
C436: x13+x19 <=1 
C437: x13+x20 <=1 
C438: x13+x28 <=1 
C439: x13+x29-y13_29 <=1 
C440: x13+x31 <=1 
C441: x13+x33 <=1 
C442: x13+x34 <=1 
C443: x13+x35 <=1 
C444: x13+x36-y13_36 <=1 
C445: x13+x38-y13_38 <=1 
C446: x13+x39 <=1 
C447: x13+x40 <=1 
C448: x13+x43-y13_43 <=1 
C449: x13+x44 <=1 
C450: x13+x45-y13_45 <=1 
C451: x13+x47-y13_47 <=1 
C452: x13+x48-y13_48 <=1 
C453: x13+x49 <=1 
C454: x13+x50 <=1 
C455: x13+x51 <=1 
C456: x13+x52-y13_52 <=1 
C457: x13+x55 <=1 
C458: x13+x56 <=1 
C459: x13+x60 <=1 
C460: x13+x61 <=1 
C461: x13+x62 <=1 
C462: x14+x15 <=1 
C463: x14+x16 <=1 
C464: x14+x19-y14_19 <=1 
C465: x14+x20 <=1 
C466: x14+x21-y14_21 <=1 
C467: x14+x24 <=1 
C468: x14+x32 <=1 
C469: x14+x34-y14_34 <=1 
C470: x14+x35 <=1 
C471: x14+x36 <=1 
C472: x14+x37 <=1 
C473: x14+x42-y14_42 <=1 
C474: x14+x45 <=1 
C475: x14+x47 <=1 
C476: x14+x48 <=1 
C477: x14+x50 <=1 
C478: x14+x53 <=1 
C479: x14+x54 <=1 
C480: x14+x55 <=1 
C481: x14+x59 <=1 
C482: x14+x60 <=1 
C483: x14+x61 <=1 
C484: x14+x62-y14_62 <=1 
C485: x14+x64-y14_64 <=1 
C486: x15+x19 <=1 
C487: x15+x20 <=1 
C488: x15+x21-y15_21 <=1 
C489: x15+x23 <=1 
C490: x15+x25 <=1 
C491: x15+x26-y15_26 <=1 
C492: x15+x28 <=1 
C493: x15+x29-y15_29 <=1 
C494: x15+x32 <=1 
C495: x15+x34 <=1 
C496: x15+x36 <=1 
C497: x15+x37 <=1 
C498: x15+x38-y15_38 <=1 
C499: x15+x39 <=1 
C500: x15+x41-y15_41 <=1 
C501: x15+x42-y15_42 <=1 
C502: x15+x43-y15_43 <=1 
C503: x15+x44-y15_44 <=1 
C504: x15+x46-y15_46 <=1 
C505: x15+x47-y15_47 <=1 
C506: x15+x48-y15_48 <=1 
C507: x15+x49 <=1 
C508: x15+x50 <=1 
C509: x15+x51 <=1 
C510: x15+x53 <=1 
C511: x15+x54-y15_54 <=1 
C512: x15+x56 <=1 
C513: x15+x57-y15_57 <=1 
C514: x15+x59 <=1 
C515: x15+x62 <=1 
C516: x15+x63-y15_63 <=1 
C517: x15+x64-y15_64 <=1 
C518: x16+x17 <=1 
C519: x16+x18-y16_18 <=1 
C520: x16+x19-y16_19 <=1 
C521: x16+x21-y16_21 <=1 
C522: x16+x23-y16_23 <=1 
C523: x16+x24 <=1 
C524: x16+x27 <=1 
C525: x16+x28 <=1 
C526: x16+x29-y16_29 <=1 
C527: x16+x30-y16_30 <=1 
C528: x16+x32 <=1 
C529: x16+x33 <=1 
C530: x16+x34 <=1 
C531: x16+x38-y16_38 <=1 
C532: x16+x39 <=1 
C533: x16+x41 <=1 
C534: x16+x43-y16_43 <=1 
C535: x16+x44-y16_44 <=1 
C536: x16+x49 <=1 
C537: x16+x51-y16_51 <=1 
C538: x16+x52 <=1 
C539: x16+x53 <=1 
C540: x16+x57-y16_57 <=1 
C541: x16+x58-y16_58 <=1 
C542: x16+x59 <=1 
C543: x16+x61 <=1 
C544: x16+x62 <=1 
C545: x16+x63 <=1 
C546: x16+x64 <=1 
C547: x17+x18-y17_18 <=1 
C548: x17+x20-y17_20 <=1 
C549: x17+x22-y17_22 <=1 
C550: x17+x24-y17_24 <=1 
C551: x17+x27-y17_27 <=1 
C552: x17+x29-y17_29 <=1 
C553: x17+x30 <=1 
C554: x17+x31-y17_31 <=1 
C555: x17+x33 <=1 
C556: x17+x34 <=1 
C557: x17+x36-y17_36 <=1 
C558: x17+x37-y17_37 <=1 
C559: x17+x39 <=1 
C560: x17+x41 <=1 
C561: x17+x45 <=1 
C562: x17+x46-y17_46 <=1 
C563: x17+x49-y17_49 <=1 
C564: x17+x51 <=1 
C565: x17+x53-y17_53 <=1 
C566: x17+x54-y17_54 <=1 
C567: x17+x56 <=1 
C568: x17+x57-y17_57 <=1 
C569: x17+x58 <=1 
C570: x17+x61 <=1 
C571: x17+x63 <=1 
C572: x17+x64-y17_64 <=1 
C573: x18+x20-y18_20 <=1 
C574: x18+x21 <=1 
C575: x18+x22 <=1 
C576: x18+x24-y18_24 <=1 
C577: x18+x25-y18_25 <=1 
C578: x18+x27 <=1 
C579: x18+x28 <=1 
C580: x18+x30 <=1 
C581: x18+x34 <=1 
C582: x18+x36 <=1 
C583: x18+x37-y18_37 <=1 
C584: x18+x42-y18_42 <=1 
C585: x18+x44 <=1 
C586: x18+x45-y18_45 <=1 
C587: x18+x47 <=1 
C588: x18+x48-y18_48 <=1 
C589: x18+x51 <=1 
C590: x18+x53 <=1 
C591: x18+x54 <=1 
C592: x18+x55 <=1 
C593: x18+x56-y18_56 <=1 
C594: x18+x57-y18_57 <=1 
C595: x18+x59-y18_59 <=1 
C596: x18+x60 <=1 
C597: x18+x62 <=1 
C598: x18+x63 <=1 
C599: x18+x64-y18_64 <=1 
C600: x19+x20-y19_20 <=1 
C601: x19+x21 <=1 
C602: x19+x24 <=1 
C603: x19+x29-y19_29 <=1 
C604: x19+x31-y19_31 <=1 
C605: x19+x33 <=1 
C606: x19+x34 <=1 
C607: x19+x36-y19_36 <=1 
C608: x19+x38-y19_38 <=1 
C609: x19+x40-y19_40 <=1 
C610: x19+x42 <=1 
C611: x19+x43 <=1 
C612: x19+x44-y19_44 <=1 
C613: x19+x45-y19_45 <=1 
C614: x19+x47-y19_47 <=1 
C615: x19+x49-y19_49 <=1 
C616: x19+x50 <=1 
C617: x19+x52 <=1 
C618: x19+x55-y19_55 <=1 
C619: x19+x56 <=1 
C620: x19+x57 <=1 
C621: x19+x58-y19_58 <=1 
C622: x19+x59 <=1 
C623: x19+x61 <=1 
C624: x19+x62-y19_62 <=1 
C625: x20+x21 <=1 
C626: x20+x22-y20_22 <=1 
C627: x20+x26 <=1 
C628: x20+x27 <=1 
C629: x20+x28 <=1 
C630: x20+x30-y20_30 <=1 
C631: x20+x31 <=1 
C632: x20+x33 <=1 
C633: x20+x34 <=1 
C634: x20+x35 <=1 
C635: x20+x36 <=1 
C636: x20+x37-y20_37 <=1 
C637: x20+x38 <=1 
C638: x20+x39 <=1 
C639: x20+x42 <=1 
C640: x20+x46-y20_46 <=1 
C641: x20+x47-y20_47 <=1 
C642: x20+x48-y20_48 <=1 
C643: x20+x49 <=1 
C644: x20+x53-y20_53 <=1 
C645: x20+x56 <=1 
C646: x20+x59-y20_59 <=1 
C647: x20+x64 <=1 
C648: x21+x22-y21_22 <=1 
C649: x21+x24 <=1 
C650: x21+x26-y21_26 <=1 
C651: x21+x27-y21_27 <=1 
C652: x21+x28-y21_28 <=1 
C653: x21+x29-y21_29 <=1 
C654: x21+x31 <=1 
C655: x21+x34-y21_34 <=1 
C656: x21+x39 <=1 
C657: x21+x40-y21_40 <=1 
C658: x21+x41-y21_41 <=1 
C659: x21+x42-y21_42 <=1 
C660: x21+x44 <=1 
C661: x21+x45 <=1 
C662: x21+x47-y21_47 <=1 
C663: x21+x48-y21_48 <=1 
C664: x21+x49 <=1 
C665: x21+x50 <=1 
C666: x21+x51 <=1 
C667: x21+x52 <=1 
C668: x21+x53 <=1 
C669: x21+x54 <=1 
C670: x21+x56-y21_56 <=1 
C671: x21+x57 <=1 
C672: x21+x58 <=1 
C673: x21+x60-y21_60 <=1 
C674: x21+x61 <=1 
C675: x21+x62-y21_62 <=1 
C676: x21+x63 <=1 
C677: x22+x24 <=1 
C678: x22+x26 <=1 
C679: x22+x27-y22_27 <=1 
C680: x22+x32-y22_32 <=1 
C681: x22+x33 <=1 
C682: x22+x34 <=1 
C683: x22+x36-y22_36 <=1 
C684: x22+x38 <=1 
C685: x22+x39-y22_39 <=1 
C686: x22+x40-y22_40 <=1 
C687: x22+x42-y22_42 <=1 
C688: x22+x45-y22_45 <=1 
C689: x22+x46 <=1 
C690: x22+x47-y22_47 <=1 
C691: x22+x48-y22_48 <=1 
C692: x22+x49-y22_49 <=1 
C693: x22+x52 <=1 
C694: x22+x54-y22_54 <=1 
C695: x22+x55 <=1 
C696: x22+x56-y22_56 <=1 
C697: x22+x57 <=1 
C698: x22+x59-y22_59 <=1 
C699: x22+x60 <=1 
C700: x22+x63 <=1 
C701: x22+x64 <=1 
C702: x23+x24-y23_24 <=1 
C703: x23+x27-y23_27 <=1 
C704: x23+x29-y23_29 <=1 
C705: x23+x34 <=1 
C706: x23+x37-y23_37 <=1 
C707: x23+x38-y23_38 <=1 
C708: x23+x39 <=1 
C709: x23+x40-y23_40 <=1 
C710: x23+x41 <=1 
C711: x23+x43-y23_43 <=1 
C712: x23+x44 <=1 
C713: x23+x45 <=1 
C714: x23+x46 <=1 
C715: x23+x47 <=1 
C716: x23+x49-y23_49 <=1 
C717: x23+x52 <=1 
C718: x23+x54 <=1 
C719: x23+x55-y23_55 <=1 
C720: x23+x58-y23_58 <=1 
C721: x23+x59-y23_59 <=1 
C722: x23+x61 <=1 
C723: x23+x64-y23_64 <=1 
C724: x24+x25 <=1 
C725: x24+x27-y24_27 <=1 
C726: x24+x28-y24_28 <=1 
C727: x24+x30-y24_30 <=1 
C728: x24+x31 <=1 
C729: x24+x33 <=1 
C730: x24+x34 <=1 
C731: x24+x35-y24_35 <=1 
C732: x24+x38 <=1 
C733: x24+x39-y24_39 <=1 
C734: x24+x40-y24_40 <=1 
C735: x24+x45-y24_45 <=1 
C736: x24+x46 <=1 
C737: x24+x48 <=1 
C738: x24+x49 <=1 
C739: x24+x50-y24_50 <=1 
C740: x24+x51 <=1 
C741: x24+x52 <=1 
C742: x24+x53-y24_53 <=1 
C743: x24+x55 <=1 
C744: x24+x56-y24_56 <=1 
C745: x24+x60-y24_60 <=1 
C746: x24+x61 <=1 
C747: x24+x62 <=1 
C748: x24+x64 <=1 
C749: x25+x26 <=1 
C750: x25+x27-y25_27 <=1 
C751: x25+x29-y25_29 <=1 
C752: x25+x30 <=1 
C753: x25+x31 <=1 
C754: x25+x32 <=1 
C755: x25+x41 <=1 
C756: x25+x42-y25_42 <=1 
C757: x25+x43 <=1 
C758: x25+x44 <=1 
C759: x25+x45 <=1 
C760: x25+x46 <=1 
C761: x25+x49 <=1 
C762: x25+x50 <=1 
C763: x25+x53-y25_53 <=1 
C764: x25+x54 <=1 
C765: x25+x55-y25_55 <=1 
C766: x25+x57 <=1 
C767: x25+x59-y25_59 <=1 
C768: x25+x62-y25_62 <=1 
C769: x25+x64-y25_64 <=1 
C770: x26+x27 <=1 
C771: x26+x28 <=1 
C772: x26+x30-y26_30 <=1 
C773: x26+x32-y26_32 <=1 
C774: x26+x33-y26_33 <=1 
C775: x26+x36-y26_36 <=1 
C776: x26+x37 <=1 
C777: x26+x38-y26_38 <=1 
C778: x26+x40-y26_40 <=1 
C779: x26+x44-y26_44 <=1 
C780: x26+x45 <=1 
C781: x26+x46-y26_46 <=1 
C782: x26+x47 <=1 
C783: x26+x48-y26_48 <=1 
C784: x26+x51 <=1 
C785: x26+x53-y26_53 <=1 
C786: x26+x54 <=1 
C787: x26+x55 <=1 
C788: x26+x56 <=1 
C789: x26+x57 <=1 
C790: x26+x59-y26_59 <=1 
C791: x26+x60 <=1 
C792: x26+x61 <=1 
C793: x26+x64 <=1 
C794: x27+x28-y27_28 <=1 
C795: x27+x31-y27_31 <=1 
C796: x27+x32 <=1 
C797: x27+x33 <=1 
C798: x27+x34-y27_34 <=1 
C799: x27+x36 <=1 
C800: x27+x39-y27_39 <=1 
C801: x27+x40-y27_40 <=1 
C802: x27+x42 <=1 
C803: x27+x43-y27_43 <=1 
C804: x27+x46-y27_46 <=1 
C805: x27+x48 <=1 
C806: x27+x49 <=1 
C807: x27+x50 <=1 
C808: x27+x51-y27_51 <=1 
C809: x27+x52-y27_52 <=1 
C810: x27+x53-y27_53 <=1 
C811: x27+x54 <=1 
C812: x27+x59 <=1 
C813: x27+x60 <=1 
C814: x27+x61-y27_61 <=1 
C815: x28+x30-y28_30 <=1 
C816: x28+x32-y28_32 <=1 
C817: x28+x33 <=1 
C818: x28+x34-y28_34 <=1 
C819: x28+x36 <=1 
C820: x28+x38-y28_38 <=1 
C821: x28+x39 <=1 
C822: x28+x40 <=1 
C823: x28+x41 <=1 
C824: x28+x48 <=1 
C825: x28+x49 <=1 
C826: x28+x50-y28_50 <=1 
C827: x28+x51 <=1 
C828: x28+x53-y28_53 <=1 
C829: x28+x55 <=1 
C830: x28+x58 <=1 
C831: x28+x59 <=1 
C832: x28+x60-y28_60 <=1 
C833: x28+x61-y28_61 <=1 
C834: x28+x64-y28_64 <=1 
C835: x29+x31 <=1 
C836: x29+x32 <=1 
C837: x29+x35-y29_35 <=1 
C838: x29+x37-y29_37 <=1 
C839: x29+x38 <=1 
C840: x29+x39-y29_39 <=1 
C841: x29+x40 <=1 
C842: x29+x42 <=1 
C843: x29+x43 <=1 
C844: x29+x44-y29_44 <=1 
C845: x29+x45-y29_45 <=1 
C846: x29+x46-y29_46 <=1 
C847: x29+x47-y29_47 <=1 
C848: x29+x48-y29_48 <=1 
C849: x29+x49 <=1 
C850: x29+x50-y29_50 <=1 
C851: x29+x51-y29_51 <=1 
C852: x29+x54-y29_54 <=1 
C853: x29+x57 <=1 
C854: x29+x59 <=1 
C855: x29+x61-y29_61 <=1 
C856: x29+x62-y29_62 <=1 
C857: x29+x63 <=1 
C858: x30+x33-y30_33 <=1 
C859: x30+x36 <=1 
C860: x30+x37 <=1 
C861: x30+x38-y30_38 <=1 
C862: x30+x39-y30_39 <=1 
C863: x30+x40-y30_40 <=1 
C864: x30+x41 <=1 
C865: x30+x43-y30_43 <=1 
C866: x30+x44-y30_44 <=1 
C867: x30+x47 <=1 
C868: x30+x49 <=1 
C869: x30+x50-y30_50 <=1 
C870: x30+x52-y30_52 <=1 
C871: x30+x53-y30_53 <=1 
C872: x30+x54 <=1 
C873: x30+x56 <=1 
C874: x30+x57 <=1 
C875: x30+x58-y30_58 <=1 
C876: x30+x60-y30_60 <=1 
C877: x30+x61 <=1 
C878: x31+x33 <=1 
C879: x31+x34-y31_34 <=1 
C880: x31+x35 <=1 
C881: x31+x36 <=1 
C882: x31+x37-y31_37 <=1 
C883: x31+x38-y31_38 <=1 
C884: x31+x39 <=1 
C885: x31+x40 <=1 
C886: x31+x41-y31_41 <=1 
C887: x31+x47 <=1 
C888: x31+x48-y31_48 <=1 
C889: x31+x51 <=1 
C890: x31+x52-y31_52 <=1 
C891: x31+x54 <=1 
C892: x31+x57 <=1 
C893: x31+x58 <=1 
C894: x31+x59-y31_59 <=1 
C895: x31+x60 <=1 
C896: x31+x62 <=1 
C897: x31+x63 <=1 
C898: x31+x64 <=1 
C899: x32+x35 <=1 
C900: x32+x36-y32_36 <=1 
C901: x32+x39 <=1 
C902: x32+x40 <=1 
C903: x32+x41-y32_41 <=1 
C904: x32+x42-y32_42 <=1 
C905: x32+x43 <=1 
C906: x32+x45 <=1 
C907: x32+x46 <=1 
C908: x32+x47-y32_47 <=1 
C909: x32+x48-y32_48 <=1 
C910: x32+x49-y32_49 <=1 
C911: x32+x51 <=1 
C912: x32+x52-y32_52 <=1 
C913: x32+x54 <=1 
C914: x32+x55 <=1 
C915: x32+x56-y32_56 <=1 
C916: x32+x60-y32_60 <=1 
C917: x32+x62-y32_62 <=1 
C918: x32+x63-y32_63 <=1 
C919: x32+x64-y32_64 <=1 
C920: x33+x35 <=1 
C921: x33+x36 <=1 
C922: x33+x39 <=1 
C923: x33+x41 <=1 
C924: x33+x42 <=1 
C925: x33+x45 <=1 
C926: x33+x49-y33_49 <=1 
C927: x33+x52 <=1 
C928: x33+x54-y33_54 <=1 
C929: x33+x56-y33_56 <=1 
C930: x33+x57 <=1 
C931: x33+x63-y33_63 <=1 
C932: x34+x36-y34_36 <=1 
C933: x34+x37 <=1 
C934: x34+x40 <=1 
C935: x34+x41-y34_41 <=1 
C936: x34+x42-y34_42 <=1 
C937: x34+x43-y34_43 <=1 
C938: x34+x44 <=1 
C939: x34+x45-y34_45 <=1 
C940: x34+x46-y34_46 <=1 
C941: x34+x47 <=1 
C942: x34+x48-y34_48 <=1 
C943: x34+x50-y34_50 <=1 
C944: x34+x51-y34_51 <=1 
C945: x34+x52 <=1 
C946: x34+x53-y34_53 <=1 
C947: x34+x55 <=1 
C948: x34+x56 <=1 
C949: x34+x58-y34_58 <=1 
C950: x34+x60-y34_60 <=1 
C951: x34+x64-y34_64 <=1 
C952: x35+x36-y35_36 <=1 
C953: x35+x37-y35_37 <=1 
C954: x35+x38 <=1 
C955: x35+x40-y35_40 <=1 
C956: x35+x42 <=1 
C957: x35+x44 <=1 
C958: x35+x45 <=1 
C959: x35+x46-y35_46 <=1 
C960: x35+x47 <=1 
C961: x35+x49-y35_49 <=1 
C962: x35+x50-y35_50 <=1 
C963: x35+x51 <=1 
C964: x35+x54-y35_54 <=1 
C965: x35+x55 <=1 
C966: x35+x56 <=1 
C967: x35+x58-y35_58 <=1 
C968: x35+x60 <=1 
C969: x35+x62 <=1 
C970: x36+x37-y36_37 <=1 
C971: x36+x40 <=1 
C972: x36+x41-y36_41 <=1 
C973: x36+x42 <=1 
C974: x36+x43 <=1 
C975: x36+x44 <=1 
C976: x36+x45 <=1 
C977: x36+x46 <=1 
C978: x36+x48-y36_48 <=1 
C979: x36+x50 <=1 
C980: x36+x51 <=1 
C981: x36+x53 <=1 
C982: x36+x54 <=1 
C983: x36+x55 <=1 
C984: x36+x56-y36_56 <=1 
C985: x36+x57-y36_57 <=1 
C986: x36+x60 <=1 
C987: x36+x61-y36_61 <=1 
C988: x36+x63-y36_63 <=1 
C989: x37+x38 <=1 
C990: x37+x40-y37_40 <=1 
C991: x37+x41-y37_41 <=1 
C992: x37+x44 <=1 
C993: x37+x46-y37_46 <=1 
C994: x37+x48-y37_48 <=1 
C995: x37+x50-y37_50 <=1 
C996: x37+x51 <=1 
C997: x37+x52 <=1 
C998: x37+x53 <=1 
C999: x37+x54 <=1 
C1000: x37+x55-y37_55 <=1 
C1001: x37+x57 <=1 
C1002: x37+x58 <=1 
C1003: x37+x59 <=1 
C1004: x37+x61 <=1 
C1005: x38+x43 <=1 
C1006: x38+x44 <=1 
C1007: x38+x45 <=1 
C1008: x38+x47-y38_47 <=1 
C1009: x38+x48-y38_48 <=1 
C1010: x38+x50-y38_50 <=1 
C1011: x38+x51 <=1 
C1012: x38+x52 <=1 
C1013: x38+x53 <=1 
C1014: x38+x54 <=1 
C1015: x38+x57-y38_57 <=1 
C1016: x38+x58-y38_58 <=1 
C1017: x38+x59 <=1 
C1018: x38+x61 <=1 
C1019: x38+x64 <=1 
C1020: x39+x40-y39_40 <=1 
C1021: x39+x41-y39_41 <=1 
C1022: x39+x48-y39_48 <=1 
C1023: x39+x49-y39_49 <=1 
C1024: x39+x53 <=1 
C1025: x39+x54-y39_54 <=1 
C1026: x39+x57-y39_57 <=1 
C1027: x39+x58-y39_58 <=1 
C1028: x39+x59 <=1 
C1029: x39+x60-y39_60 <=1 
C1030: x39+x61 <=1 
C1031: x39+x62-y39_62 <=1 
C1032: x40+x41-y40_41 <=1 
C1033: x40+x42 <=1 
C1034: x40+x43-y40_43 <=1 
C1035: x40+x45-y40_45 <=1 
C1036: x40+x46 <=1 
C1037: x40+x50-y40_50 <=1 
C1038: x40+x51 <=1 
C1039: x40+x52 <=1 
C1040: x40+x54 <=1 
C1041: x40+x55 <=1 
C1042: x40+x57-y40_57 <=1 
C1043: x40+x59 <=1 
C1044: x40+x60 <=1 
C1045: x40+x61 <=1 
C1046: x40+x62-y40_62 <=1 
C1047: x40+x63-y40_63 <=1 
C1048: x41+x44 <=1 
C1049: x41+x45-y41_45 <=1 
C1050: x41+x46-y41_46 <=1 
C1051: x41+x49 <=1 
C1052: x41+x51 <=1 
C1053: x41+x52 <=1 
C1054: x41+x53 <=1 
C1055: x41+x55-y41_55 <=1 
C1056: x41+x56 <=1 
C1057: x41+x57-y41_57 <=1 
C1058: x41+x58-y41_58 <=1 
C1059: x41+x60-y41_60 <=1 
C1060: x41+x61-y41_61 <=1 
C1061: x41+x64 <=1 
C1062: x42+x44 <=1 
C1063: x42+x46-y42_46 <=1 
C1064: x42+x47-y42_47 <=1 
C1065: x42+x48-y42_48 <=1 
C1066: x42+x50-y42_50 <=1 
C1067: x42+x51-y42_51 <=1 
C1068: x42+x52-y42_52 <=1 
C1069: x42+x55 <=1 
C1070: x42+x56 <=1 
C1071: x42+x59-y42_59 <=1 
C1072: x42+x62 <=1 
C1073: x42+x63 <=1 
C1074: x42+x64 <=1 
C1075: x43+x44-y43_44 <=1 
C1076: x43+x47-y43_47 <=1 
C1077: x43+x51-y43_51 <=1 
C1078: x43+x55-y43_55 <=1 
C1079: x43+x57 <=1 
C1080: x43+x59 <=1 
C1081: x43+x61 <=1 
C1082: x43+x63 <=1 
C1083: x44+x45 <=1 
C1084: x44+x55 <=1 
C1085: x44+x58 <=1 
C1086: x44+x60 <=1 
C1087: x44+x61-y44_61 <=1 
C1088: x44+x63-y44_63 <=1 
C1089: x45+x46 <=1 
C1090: x45+x47 <=1 
C1091: x45+x49-y45_49 <=1 
C1092: x45+x50 <=1 
C1093: x45+x51-y45_51 <=1 
C1094: x45+x52-y45_52 <=1 
C1095: x45+x53-y45_53 <=1 
C1096: x45+x54 <=1 
C1097: x45+x56 <=1 
C1098: x45+x57 <=1 
C1099: x45+x58 <=1 
C1100: x45+x59 <=1 
C1101: x45+x60 <=1 
C1102: x45+x61 <=1 
C1103: x45+x62 <=1 
C1104: x45+x63-y45_63 <=1 
C1105: x45+x64 <=1 
C1106: x46+x49 <=1 
C1107: x46+x50-y46_50 <=1 
C1108: x46+x52 <=1 
C1109: x46+x53-y46_53 <=1 
C1110: x46+x54 <=1 
C1111: x46+x55 <=1 
C1112: x46+x56-y46_56 <=1 
C1113: x46+x58-y46_58 <=1 
C1114: x46+x61-y46_61 <=1 
C1115: x46+x63-y46_63 <=1 
C1116: x47+x51-y47_51 <=1 
C1117: x47+x53-y47_53 <=1 
C1118: x47+x54 <=1 
C1119: x47+x55 <=1 
C1120: x47+x56 <=1 
C1121: x47+x59-y47_59 <=1 
C1122: x47+x60 <=1 
C1123: x47+x61-y47_61 <=1 
C1124: x47+x62-y47_62 <=1 
C1125: x47+x63 <=1 
C1126: x48+x57 <=1 
C1127: x48+x61-y48_61 <=1 
C1128: x48+x62-y48_62 <=1 
C1129: x48+x64-y48_64 <=1 
C1130: x49+x50-y49_50 <=1 
C1131: x49+x51-y49_51 <=1 
C1132: x49+x52 <=1 
C1133: x49+x53 <=1 
C1134: x49+x54-y49_54 <=1 
C1135: x49+x55-y49_55 <=1 
C1136: x49+x56 <=1 
C1137: x49+x57-y49_57 <=1 
C1138: x49+x58-y49_58 <=1 
C1139: x49+x59 <=1 
C1140: x49+x62-y49_62 <=1 
C1141: x49+x63-y49_63 <=1 
C1142: x49+x64-y49_64 <=1 
C1143: x50+x51 <=1 
C1144: x50+x52 <=1 
C1145: x50+x53 <=1 
C1146: x50+x56-y50_56 <=1 
C1147: x50+x57 <=1 
C1148: x50+x58 <=1 
C1149: x50+x61 <=1 
C1150: x50+x62-y50_62 <=1 
C1151: x50+x63-y50_63 <=1 
C1152: x51+x52 <=1 
C1153: x51+x53 <=1 
C1154: x51+x55-y51_55 <=1 
C1155: x51+x56 <=1 
C1156: x51+x57-y51_57 <=1 
C1157: x51+x58 <=1 
C1158: x51+x59-y51_59 <=1 
C1159: x51+x60 <=1 
C1160: x51+x63 <=1 
C1161: x51+x64 <=1 
C1162: x52+x53 <=1 
C1163: x52+x55-y52_55 <=1 
C1164: x52+x58-y52_58 <=1 
C1165: x52+x59-y52_59 <=1 
C1166: x52+x63 <=1 
C1167: x53+x56 <=1 
C1168: x53+x58 <=1 
C1169: x53+x60-y53_60 <=1 
C1170: x53+x62-y53_62 <=1 
C1171: x54+x55-y54_55 <=1 
C1172: x54+x56 <=1 
C1173: x54+x57-y54_57 <=1 
C1174: x54+x58-y54_58 <=1 
C1175: x54+x59 <=1 
C1176: x54+x60 <=1 
C1177: x54+x61 <=1 
C1178: x54+x62-y54_62 <=1 
C1179: x54+x63 <=1 
C1180: x54+x64-y54_64 <=1 
C1181: x55+x56 <=1 
C1182: x55+x60-y55_60 <=1 
C1183: x55+x63-y55_63 <=1 
C1184: x55+x64 <=1 
C1185: x56+x57-y56_57 <=1 
C1186: x56+x58 <=1 
C1187: x56+x59 <=1 
C1188: x56+x63-y56_63 <=1 
C1189: x56+x64-y56_64 <=1 
C1190: x57+x58 <=1 
C1191: x57+x62 <=1 
C1192: x58+x59 <=1 
C1193: x58+x61-y58_61 <=1 
C1194: x58+x63 <=1 
C1195: x59+x63-y59_63 <=1 
C1196: x60+x61-y60_61 <=1 
C1197: x60+x63 <=1 
C1198: x61+x62-y61_62 <=1 
C1199: x61+x64-y61_64 <=1 
C1200: x62+x63 <=1 
C1201: x62+x64 <=1 
C1202: x63+x64-y63_64 <=1 

binary
x0
x1
x2
x3
x4
x5
x6
x7
x8
x9
x10
x11
x12
x13
x14
x15
x16
x17
x18
x19
x20
x21
x22
x23
x24
x25
x26
x27
x28
x29
x30
x31
x32
x33
x34
x35
x36
x37
x38
x39
x40
x41
x42
x43
x44
x45
x46
x47
x48
x49
x50
x51
x52
x53
x54
x55
x56
x57
x58
x59
x60
x61
x62
x63
x64
