problem_generation/data/GISP/train/er_n=65_m=1202_p=0.60_SET2_setparam=100.00_alpha=0.50_758.sol
objective value:                                 1177
x3                                                  1 	(obj:100)
x7                                                  1 	(obj:100)
x9                                                  1 	(obj:100)
x10                                                 1 	(obj:100)
x11                                                 1 	(obj:100)
x14                                                 1 	(obj:100)
x19                                                 1 	(obj:100)
x23                                                 1 	(obj:100)
x27                                                 1 	(obj:100)
x30                                                 1 	(obj:100)
x31                                                 1 	(obj:100)
x38                                                 1 	(obj:100)
y10_27                                              1 	(obj:-1)
y10_31                                              1 	(obj:-1)
y14_19                                              1 	(obj:-1)
y3_14                                               1 	(obj:-1)
y7_11                                               1 	(obj:-1)
y10_30                                              1 	(obj:-1)
y3_9                                                1 	(obj:-1)
y31_38                                              1 	(obj:-1)
y9_19                                               1 	(obj:-1)
y23_38                                              1 	(obj:-1)
y27_31                                              1 	(obj:-1)
y19_31                                              1 	(obj:-1)
y11_27                                              1 	(obj:-1)
y3_27                                               1 	(obj:-1)
y7_10                                               1 	(obj:-1)
y7_19                                               1 	(obj:-1)
y3_30                                               1 	(obj:-1)
y9_27                                               1 	(obj:-1)
y23_27                                              1 	(obj:-1)
y19_38                                              1 	(obj:-1)
y30_38                                              1 	(obj:-1)
y11_38                                              1 	(obj:-1)
y3_38                                               1 	(obj:-1)
